17674 16600 15859 15244 14915 14617 14485 13996 13625 13357 12982 12626 12260 12180 11854 11564 11312 11040 10764 10575 10263 9831 9939 9671 9662 9440 9150 9147 9067 8967 8788 8749 8638 8579 8421 8338 8211 8114 7970 7808 7719 7643 7572 7426 7386 7354 7278 7235 7138 7047 6985 6938 6877 6798 6739 6736 6642 6612 6577 6545 6518 6476 6445 6402 6367 6351 6296 6253 6172 6191 6114 6083 6069 6037 6037 5957 5900 5899 5822 5823 5754 5775 5739 5723 5710 5656 5650 5608 5583 5542 5563 5526 5499 5450 5440 5388 5351 5373 5373 5295 5342 5311 5291 5240 5220 5208 5189 5175 5140 5128 5093 5067 5064 5059 5065 5089 5040 5028 5019 5007 4973 4964 4938 4905 4917 4898 4887 4872 4867 4864 4875 4882 4844 4785 4813 4768 4756 4745 4722 4665 4685 4669 4691 4712 4618 4612 4678 4672 4667 4632 4625 4591 4589 4519 4551 4566 4544 4506 4514 4510 4459 4457 4456 4462 4451 4394 4422 4347 4347 4343 4385 4339 4352 4266 4271 4313 4319 4346 4345 4353 4325 4330 4311 4277 4303 4257 4243 4236 4236 4231 4256 4243 4230 4225 4214 4188 4189 4178 4140 4133 4128 4136 4119 4124 4119 4121 4117 4113 4104 4099 4102 4087 4084 4077 4075 4070 4062 4057 4055 4043 4041 4029 4026 4032 4032 4030 4014 4001 4019 4012 4005 4009 4008 3940 3949 3936 3944 3940 3922 3941 3905 3886 3908 3868 3848 3932 3904 3878 3877 3859 3879 3856 3845 3836 3803 3820 3815 3805 3781 3777 3817 3813 3765 3748 3742 3759 3727 3711 3698 3686 3682 3708 3708 3692 3681 3711 3688 3666 3650 3691 3629 3697 3643 3617 3613 3647 3630 3607 3674 3639 3619 3587 3578 3572 3556 3541 3524 3502 3467 3453 3434 3419 3397 3391 3382 3381 3377 3369 3348 3326 3316 3308 3304 3301 3288 3282 3270 3259 3237 3232 3217 3213 3212 3200 3199 3193 3188 3173 3169 3157 3144 3144 3139 3138 3132 3130 3127 3123 3117 3115 3096 3096 3090 3083 3073 3051 3046 3044 3040 3040 3037 3031 3026 3026 3024 3020 3018 3018 3017 3012 3007 3004 3001 2998 2998 2992 2991 2984 2977 2975 2965 2957 2957 2945 2937 2935 2932 2930 2929 2924 2924 2921 2921 2920 2909 2904 2904 2904 2904 2904 2904 2902 2893 2893 2891 2891 2891 2891 2891 2891 2891 2891 2891 2891 2890 2890 2890 2890 2890 2890 2890 2890 2890 2890 2890 2890 2890 2882 2882 2882 2879 2879 2879 2879 2879 2879 2879 2879 2879 2879 2879 2879 2879 2879 2877 2873 2873 2873 2873 2873 2873 2873 2873 2873 2873 2873 2873 2873 2873 2873 2873 2873 2873 2873 2873 2873 2873 2873 2873 2869 2867 2867 2867 2867 2860 2860 2858 2856 2856 2856 2856 2856 2856 2856 2856 2856 2856 2856 2856 2854 2854 2854 2854 2846 2846 2846 2846 2846 2846 2846 2846 2846 2846 2846 2846 2846 2846 2846 2846 2843 2843 2843 2843 2843 2843 2843 2843 2840 2838 2838 2838 2838 2838 2830 2830 2824 2824 2824 2824 2824 2824 2824 2824 2824 2824 2805 2805 2805 2805 2805 2805 2803 2803 2803 2803 2803 2803 2803 2803 2803 2803 2803 2803 2793 2793 2793 2793 2793 2793 2793 2793 2793 2793 2793 2792 2791 2791 2791 2791 2791 2780 2774 2773 2773 2760 2759 2759 2759 2758 2758 2758 2758 2758 2757 2757 2755 2755 2754 2745 2745 2745 2743 2731 2731 2731 2731 2731 2731 2731 2731 2731 2731 2731 2731 2731 2731 2730 2730 2730 2730 2725 2725 2725 2724 2724 2724 2724 2724 2724 2724 2724 2724 2724 2724 2724 2724 2724 2724 2724 2724 2724 2724 2724 2724 2724 2724 2724 2724 2724 2724 2724 2724 2724 2724 2724 2724 2724 2724 2724 2724 2724 2724 2723 2723 2723 2723 2723 2723 2723 2723 2723 2723 2723 2723 2723 2703 2703 2703 2703 2703 2703 2703 2702 2702 2702 2702 2702 2702 2702 2702 2702 2702 2702 2699 2699 2699 2699 2699 2699 2699 2699 2699 2699 2699 2699 2695 2695 2695 2695 2695 2695 2695 2695 2695 2695 2687 2687 2687 2687 2687 2687 2687 2687 2687 2687 2687 2687 2687 2687 2687 2687 2687 2687 2687 2687 2687 2687 2687 2687 2687 2687 2687 2687 2687 2687 2687 2687 2687 2687 2687 2687 2687 2687 2687 2687 2687 2687 2687 2683 2683 2683 2683 2683 2683 2683 2683 2683 2683 2683 2683 2683 2683 2683 2683 2683 2683 2683 2683 2683 2683 2683 2683 2683 2683 2683 2683 2683 2683 2683 2683 2683 2683 2683 2683 2683 2683 2683 2683 2683 2683 2683 2683 2683 2683 2683 2683 2683 2683 2683 2683 2683 2683 2683 2683 2683 2683 2683 2683 2683 2683 2683 2683 2683 2683 2683 2683 2683 2683 2683 2683 2683 2683 2683 2683 2683 2683 2683 2683 2683 2683 2683 2683 2683 2683 2683 2683 2683 2683 2683 2683 2683 2683 2683 2683 2683 2683 2683 2683 2683 2683 2683 2683 2683 2683 2683 2683 2683 2683 2683 2683 2683 2683 2683 2683 2683 2683 2683 2683 2683 2683 2683 2683 2683 2683 2683 2683 2683 2683 2683 2683 2683 2683 2683 2683 2683 2683 2683 2683 2683 2683 2683 2683 2683 2683 2683 2683 2683 2683 2683 2683 2683 2683 2683 2683 2683 2683 2683 2683 2683 2683 2683 2683 2683 2683 2683 2683 2683 2683 2683 2683 2683 2683 2683 2683 2683 2683 2683 2683 2683 2683 2683 2683 2683 2683 2683 2683 2683 2683 2683 2683 2683 2683 2683 2683 2683 2683 2683 2683 2683 2683 2683 2683 2683 2683 2683 2683 2683 2683 2683 2683 2683 2683 2683 2683 2683 2683 2683 2683 2683 2683 2683 2683 2683 2683 2683 2683 2683 2683 2683 2683 2683 2683 2683 2683 2683 2683 2683 2683 2683 2683 2683 2683 2683 2683 2683 2683 2683 2683 2683 2683 2683 2683 2683 2683 2683 2683 2683 2683 2683 2683 2683 2683 2683 2683 2683 2683 2683 2683 2683 2683 2683 2683 2683 2683 2683 2683 2683 2683 2683 2683 2683 2683 2683 2683 2683 2683 2683 2683 2683 2683 2683 2683 2683 2683 2683 2683 2683 2683 2683 2683 2683 2683 2683 2683 2683 2683 2683 2683 2683 2683 2683 2683 2683 2683 2683 2683 2683 2683 2683 2683 2683 2683 2683 2683 2683 2683 2683 2683 2683 2683 2683 2683 2683 2683 2683 2683 2683 2683 2683 2683 2683 2683 2683 2683 2683 2683 2683 2683 2683 2683 2683 2683 2683 2683 2683 2683 2683 2683 2683 2683 2683 2683 2683 2683 2683 2683 2683 2683 2683 2683 2683 2683 2683 2683 2683 2683 2683 2683 2683 2683 2683 2683 2683 2683 2683 2683 2683 2683 2683 2683 2683 2683 2683 2683 2683 2683 2683 2683 2683 2683 2683 2683 2683 2683 2683 2683 2683 2683 2683 2683 2683 2683 2683 2683 2683 2683 2683 2683 2683 2683 2683 2683 2683 2683 2683 2683 2683 2683 2683 2683 2683 2683 2683 2683 2683 2683 2683 2683 2683 2683 2683 2683 2683 2683 2683 2683 2683 2683 2683 2683 2683 2683 2683 2683 2683 2683 2683 2683 2683 2683 2683 2683 2683 2683 2683 2683 2683 2683 2683 2683 2683 2683 2683 2683 2683 2683 2683 2683 2683 2683 2683 2683 2683 2683 2683 2683 2683 2683 2683 2683 2683 2683 2683 2683 2683 2683 2683 2683 2683 
13683 12602 11861 11249 10920 10621 10494 10006 9638 9375 8988 8668 8377 8196 7884 7572 7316 7076 6773 6619 6445 6014 5954 5856 5695 5586 5329 5233 5092 4981 4862 4763 4669 4603 4479 4358 4239 4126 3983 3847 3768 3675 3637 3490 3450 3422 3348 3300 3197 3110 3044 2999 2936 2861 2822 2803 2724 2701 2659 2620 2576 2531 2500 2451 2409 2393 2346 2309 2262 2235 2203 2177 2148 2116 2069 2020 1979 1945 1904 1871 1850 1834 1798 1775 1756 1722 1696 1665 1639 1623 1597 1585 1555 1527 1499 1478 1450 1436 1420 1396 1375 1347 1329 1319 1299 1287 1277 1261 1210 1203 1177 1156 1146 1143 1138 1130 1122 1108 1083 1068 1039 1030 1025 1004 1002 993 974 967 965 959 946 942 926 917 897 866 860 829 826 813 809 779 778 774 757 757 754 748 744 736 727 725 720 682 678 671 664 636 625 605 570 567 567 561 554 538 525 500 498 494 482 477 475 461 458 448 443 438 432 428 418 403 399 387 365 341 341 341 327 327 322 318 313 309 299 294 277 269 269 269 269 264 264 261 256 254 250 247 245 242 240 228 228 227 225 224 221 218 218 218 218 218 218 216 216 214 214 214 195 195 195 185 175 175 173 173 162 162 158 156 156 156 134 134 134 121 110 110 110 110 106 106 102 98 98 78 78 78 78 78 77 77 63 63 63 62 60 60 60 60 60 57 57 57 57 52 37 20 20 13 12 9 4 4 4 3 1 1 0 0 0 0 0 0 0 0 0 0 0 0 0 0 0 0 0 0 0 0 0 0 0 0 0 0 0 0 0 0 0 0 0 0 0 0 0 0 0 0 0 0 0 0 0 0 0 0 0 0 0 0 0 0 0 0 0 0 0 0 0 0 0 0 0 0 0 0 0 0 0 0 0 0 0 0 0 0 0 0 0 0 0 0 0 0 0 0 0 0 0 0 0 0 0 0 0 0 0 0 0 0 0 0 0 0 0 0 0 0 0 0 0 0 0 0 0 0 0 0 0 0 0 0 0 0 0 0 0 0 0 0 0 0 0 0 0 0 0 0 0 0 0 0 0 0 0 0 0 0 0 0 0 0 0 0 0 0 0 0 0 0 0 0 0 0 0 0 0 0 0 0 0 0 0 0 0 0 0 0 0 0 0 0 0 0 0 0 0 0 0 0 0 0 0 0 0 0 0 0 0 0 0 0 0 0 0 0 0 0 0 0 0 0 0 0 0 0 0 0 0 0 0 0 0 0 0 0 0 0 0 0 0 0 0 0 0 0 0 0 0 0 0 0 0 0 0 0 0 0 0 0 0 0 0 0 0 0 0 0 0 0 0 0 0 0 0 0 0 0 0 0 0 0 0 0 0 0 0 0 0 0 0 0 0 0 0 0 0 0 0 0 0 0 0 0 0 0 0 0 0 0 0 0 0 0 0 0 0 0 0 0 0 0 0 0 0 0 0 0 0 0 0 0 0 0 0 0 0 0 0 0 0 0 0 0 0 0 0 0 0 0 0 0 0 0 0 0 0 0 0 0 0 0 0 0 0 0 0 0 0 0 0 0 0 0 0 0 0 0 0 0 0 0 0 0 0 0 0 0 0 0 0 0 0 0 0 0 0 0 0 0 0 0 0 0 0 0 0 0 0 0 0 0 0 0 0 0 0 0 0 0 0 0 0 0 0 0 0 0 0 0 0 0 0 0 0 0 0 0 0 0 0 0 0 0 0 0 0 0 0 0 0 0 0 0 0 0 0 0 0 0 0 0 0 0 0 0 0 0 0 0 0 0 0 0 0 0 0 0 0 0 0 0 0 0 0 0 0 0 0 0 0 0 0 0 0 0 0 0 0 0 0 0 0 0 0 0 0 0 0 0 0 0 0 0 0 0 0 0 0 0 0 0 0 0 0 0 0 0 0 0 0 0 0 0 0 0 0 0 0 0 0 0 0 0 0 0 0 0 0 0 0 0 0 0 0 0 0 0 0 0 0 0 0 0 0 0 0 0 0 0 0 0 0 0 0 0 0 0 0 0 0 0 0 0 0 0 0 0 0 0 0 0 0 0 0 0 0 0 0 0 0 0 0 0 0 0 0 0 0 0 0 0 0 0 0 0 0 0 0 0 0 0 0 0 0 0 0 0 0 0 0 0 0 0 0 0 0 0 0 0 0 0 0 0 0 0 0 0 0 0 0 0 0 0 0 0 0 0 0 0 0 0 0 0 0 0 0 0 0 0 0 0 0 0 0 0 0 0 0 0 0 0 0 0 0 0 0 0 0 0 0 0 0 0 0 0 0 0 0 0 0 0 0 0 0 0 0 0 0 0 0 0 0 0 0 0 0 0 0 0 0 0 0 0 0 0 0 0 0 0 0 0 0 0 0 0 0 0 0 0 0 0 0 0 0 0 0 0 0 0 0 0 0 0 0 0 0 0 0 0 0 0 0 0 0 0 0 0 0 0 0 0 0 0 0 0 0 0 0 0 0 0 0 0 0 0 0 0 0 0 0 0 0 0 0 0 0 0 0 0 0 0 0 0 0 0 0 0 0 0 0 0 0 0 0 0 0 0 0 0 0 0 0 0 0 0 0 0 0 0 0 0 0 0 0 0 0 0 0 0 0 0 0 0 0 0 0 0 0 0 0 0 0 0 0 0 0 0 0 0 0 0 0 0 0 0 0 0 0 0 0 0 0 0 0 0 0 0 0 0 0 0 0 0 0 0 0 0 0 0 0 0 0 0 0 0 0 0 0 0 0 0 0 0 0 0 0 0 0 0 0 0 0 0 0 0 0 0 0 0 0 0 0 0 0 0 0 0 0 0 0 0 0 0 0 0 0 0 0 0 0 0 0 0 0 0 0 0 0 0 0 0 0 0 0 0 0 0 0 